(set-info :smt-lib-version 2.6)
(set-logic QF_S)
(set-info :source |
Generated by: Murphy Berzish, Mitja Kulczynski, Federico Mora, Florin Manea, Joel Day, Dirk Nowotka, Vijay Ganesh, Zhengyang Lu
Generated on: 2020-10-01
Description: Translated from a collection of real-world regex queries, AutomataArk, collected by Loris D’Antoni and Fang Wang: https://github.com/lorisdanto/automatark
Application: Evaluate solvers on real-world regex queries
Target solver: Z3str3RE, CVC4, OSTRICH, Z3seq, Z3str3, Z3-Trau
Publications: Berzish, M., Kulczynski, M., Mora, F., Manea, F., Day, J. D., Nowotka, D., & Ganesh, V. (2021, July). An SMT solver for regular expressions and linear arithmetic over string length. In CAV 2021.
|)
(set-info :license "https://creativecommons.org/licenses/by/4.0/")
(set-info :category "industrial")
(set-info :status unsat)

(declare-const X String)
(assert (str.in_re X (re.++ (str.to_re "User-Agent:") (re.+ (re.union (str.to_re " ") (str.to_re "\u{9}") (str.to_re "\u{a}") (str.to_re "\u{c}") (str.to_re "\u{d}"))) (str.to_re "Subject:as.starware.com\u{a}"))))
(assert (not (str.in_re X (re.++ (str.to_re "Password=\u{22}") (re.union (re.++ (str.to_re "{") (re.+ re.allchar) (str.to_re "}") (re.+ (re.union (re.range "0" "9") (re.range "a" "z") (re.range "A" "Z"))) (re.* (str.to_re "="))) (re.+ (re.union (re.range "0" "9") (re.range "a" "z") (re.range "A" "Z")))) (str.to_re "\u{22}\u{a}")))))
(assert (not (str.in_re X (re.++ (str.to_re "Host:") (re.+ (re.union (str.to_re " ") (str.to_re "\u{9}") (str.to_re "\u{a}") (str.to_re "\u{c}") (str.to_re "\u{d}"))) (str.to_re "Host:Subject:namedDownloadUser-Agent:BackAtTaCk\u{a}")))))
(assert (str.in_re X (re.++ (str.to_re "dat") (re.+ (re.union (str.to_re " ") (str.to_re "\u{9}") (str.to_re "\u{a}") (str.to_re "\u{c}") (str.to_re "\u{d}"))) (str.to_re "resultsmaster.com\u{13}") (re.* re.allchar) (str.to_re "Host:") (re.* re.allchar) (str.to_re "SpyAgentRootHost:AdToolsSubject:e2give.com\u{a}"))))
(assert (str.in_re X (re.++ (str.to_re "adserver.warezclient.com") (re.+ (re.union (str.to_re " ") (str.to_re "\u{9}") (str.to_re "\u{a}") (str.to_re "\u{c}") (str.to_re "\u{d}"))) (str.to_re "URLBlaze") (re.+ (re.union (str.to_re " ") (str.to_re "\u{9}") (str.to_re "\u{a}") (str.to_re "\u{c}") (str.to_re "\u{d}"))) (str.to_re "Host:Host:\u{a}"))))
(check-sat)

(exit)
